NAME: GRASP_24_14
TYPE: TSP
COMMENT: line_24_14
DIMENSION: 24
EDGE_WEIGHT_TYPE: EUC_2D
NODE_COORD_SECTION
1 2402 1519
2 447 3237
3 3623 4593
4 1576 665
5 2709 4093
6 4210 875
7 2411 2428
8 1628 839
9 2639 1242
10 2842 2793
11 3301 2111
12 3627 2643
13 1196 1815
14 4687 2653
15 3711 617
16 1823 4476
17 68 4818
18 998 1169
19 3461 4938
20 391 3148
21 3908 3948
22 3967 3364
23 1913 238
24 2734 3147
